SCIP Status        : solving was interrupted [time limit reached]
Total Time         :    3600.00
  solving          :    3600.00
  presolving       :       0.34 (included in solving)
  reading          :       0.00
  copying          :       2.14 (43 #copies) (minimal 0.00, maximal 0.09, average 0.05)
Original Problem   :
  Problem name     : bbbenchmark/g05_80.3.cut
  Variables        : 81 (80 binary, 0 integer, 0 implicit integer, 1 continuous)
  Constraints      : 1 initial, 1 maximal
  Objective        : minimize, 1 non-zeros (abs.min = 1, abs.max = 1)
Presolved Problem  :
  Problem name     : t_bbbenchmark/g05_80.3.cut
  Variables        : 1612 (80 binary, 0 integer, 1530 implicit integer, 2 continuous)
  Constraints      : 1534 initial, 8217 maximal
  Objective        : minimize, 1 non-zeros (abs.min = 1, abs.max = 1)
  Nonzeros         : 6307 constraint, 162 clique table
Presolvers         :   ExecTime  SetupTime  Calls  FixedVars   AggrVars   ChgTypes  ChgBounds   AddHoles    DelCons    AddCons   ChgSides   ChgCoefs
  boundshift       :       0.00       0.00      0          0          0          0          0          0          0          0          0          0
  convertinttobin  :       0.00       0.00      0          0          0          0          0          0          0          0          0          0
  domcol           :       0.00       0.00      1          0          0          0          0          0          0          0          0          0
  dualagg          :       0.00       0.00      0          0          0          0          0          0          0          0          0          0
  dualcomp         :       0.00       0.00      1          0          0          0          0          0          0          0          0          0
  dualinfer        :       0.00       0.00      0          0          0          0          0          0          0          0          0          0
  dualsparsify     :       0.00       0.00      1          0          0          0          0          0          0          0          0          0
  gateextraction   :       0.00       0.00      0          0          0          0          0          0          0          0          0          0
  implics          :       0.00       0.00      2          0          0          0          0          0          0          0          0          0
  inttobinary      :       0.00       0.00      0          0          0          0          0          0          0          0          0          0
  qpkktref         :       0.00       0.00      0          0          0          0          0          0          0          0          0          0
  redvub           :       0.00       0.00      0          0          0          0          0          0          0          0          0          0
  sparsify         :       0.00       0.00      1          0          0          0          0          0          0          0          0          0
  stuffing         :       0.00       0.00      0          0          0          0          0          0          0          0          0          0
  trivial          :       0.00       0.00      4          0          0          0          0          0          0          0          0          0
  tworowbnd        :       0.00       0.00      0          0          0          0          0          0          0          0          0          0
  dualfix          :       0.00       0.00      4          0          0          0          0          0          0          0          0          0
  genvbounds       :       0.00       0.00      0          0          0          0          0          0          0          0          0          0
  probing          :       0.22       0.00      1          0          0          0          0          0          0          0          0          0
  pseudoobj        :       0.00       0.00      1          0          0          0          1          0          0          0          0          0
  symmetry         :       0.00       0.00      0          0          0          0          0          0          0          0          0          0
  vbounds          :       0.00       0.00      1          0          0          0          0          0          0          0          0          0
  varbound         :       0.00       0.00      2          0          0          0          0          0          0          0          0          0
  and              :       0.00       0.00      2          0          0          0          0          0          0          0          0          0
  linear           :       0.01       0.00      2          0          0          0          0          0          0          0          0          0
  logicor          :       0.00       0.00      0          0          0          0          0          0          0          0          0          0
  bounddisjunction :       0.00       0.00      0          0          0          0          0          0          0          0          0          0
  nonlinear        :       0.11       0.00      5          0          0          0          1          0          0       1533          0          0
  benders          :       0.00       0.00      0          0          0          0          0          0          0          0          0          0
  components       :       0.00       0.00      1          0          0          0          0          0          0          0          0          0
  root node        :          -          -      -          0          -          -         29          -          -          -          -          -
Constraints        :     Number  MaxNumber  #Separate #Propagate    #EnfoLP    #EnfoRelax  #EnfoPS    #Check   #ResProp    Cutoffs    DomReds       Cuts    Applied      Conss   Children
  benderslp        :          0          0          0          0      58603          0          0       1786          0          0          0          0          0          0          0
  integral         :          0          0          0          0      58603          0          0       1786          0          0       3457          0          0       1777     114656
  varbound         :          1          1        169     154684          0          0          0         37          0          0        799          0          0          0          0
  and              :       1530       1530      64934     486430         16          0          0         37     250041          1    1905921       1281       1256          0          0
  linear           :          3+         4        169     486432         16          0          0         35         68          1      19683          0          0          0          0
  logicor          :          0+      6538          0     125345          0          0          0          0        171        504         55          0          0          0          0
  bounddisjunction :          0+       181          0      21363          0          0          0          0          0          8          0          0          0          0          0
  benders          :          0          0          0          0         16          0          0         29          0          0          0          0          0          0          0
  countsols        :          0          0          0          0         16          0          0         29          0          0          0          0          0          0          0
  components       :          0          0          0          0          0          0          0          0          0          0          0          0          0          0          0
Constraint Timings :  TotalTime  SetupTime   Separate  Propagate     EnfoLP     EnfoPS     EnfoRelax   Check    ResProp    SB-Prop
  benderslp        :       0.07       0.00       0.00       0.00       0.07       0.00       0.00       0.00       0.00       0.00
  integral         :      52.28       0.00       0.00       0.00      52.28       0.00       0.00       0.00       0.00       0.00
  varbound         :       0.09       0.00       0.00       0.09       0.00       0.00       0.00       0.00       0.00       0.00
  and              :      56.92       0.00      33.28      22.89       0.00       0.00       0.00       0.01       0.32       0.42
  linear           :       0.72       0.00       0.04       0.67       0.00       0.00       0.00       0.01       0.00       0.00
  logicor          :       7.39       0.00       0.00       7.34       0.00       0.00       0.00       0.00       0.00       0.05
  bounddisjunction :       0.17       0.00       0.00       0.17       0.00       0.00       0.00       0.00       0.00       0.00
  benders          :       0.00       0.00       0.00       0.00       0.00       0.00       0.00       0.00       0.00       0.00
  countsols        :       0.00       0.00       0.00       0.00       0.00       0.00       0.00       0.00       0.00       0.00
  components       :       0.13       0.00       0.00       0.13       0.00       0.00       0.00       0.00       0.00       0.00
Propagators        : #Propagate   #ResProp    Cutoffs    DomReds
  dualfix          :          2          0          0          0
  genvbounds       :          0          0          0          0
  nlobbt           :          0          0          0          0
  obbt             :          0          0          0          0
  probing          :          0          0          0          0
  pseudoobj        :     278247          0          0         31
  redcost          :     137263          0          0      86685
  rootredcost      :         26          0          0          0
  symmetry         :          0          0          0          0
  vbounds          :      46629          0          0          0
Propagator Timings :  TotalTime  SetupTime   Presolve  Propagate    ResProp    SB-Prop
  dualfix          :       0.00       0.00       0.00       0.00       0.00       0.00
  genvbounds       :       0.35       0.00       0.00       0.34       0.00       0.01
  nlobbt           :       0.00       0.00       0.00       0.00       0.00       0.00
  obbt             :       0.00       0.00       0.00       0.00       0.00       0.00
  probing          :       0.22       0.00       0.22       0.00       0.00       0.00
  pseudoobj        :       0.43       0.00       0.00       0.43       0.00       0.00
  redcost          :       8.54       0.00       0.00       8.53       0.00       0.01
  rootredcost      :       0.31       0.00       0.00       0.30       0.00       0.01
  symmetry         :       0.32       0.00       0.00       0.31       0.00       0.01
  vbounds          :       0.35       0.00       0.00       0.35       0.00       0.00
Conflict Analysis  :       Time      Calls    Success    DomReds  Conflicts   Literals    Reconvs ReconvLits   Dualrays   Nonzeros   LP Iters   (pool size: [10000,10000])
  propagation      :       0.01        514        441          -        513       45.8          0        0.0          -          -          -
  infeasible LP    :       0.00          0          0          -          0        0.0          0        0.0          2       63.0          0
  bound exceed. LP :      14.44       6980       5632          -      80560       70.3          1       35.0          0        0.0      32645
  strong branching :       0.00          0          0          -          0        0.0          0        0.0          -          -          0
  pseudo solution  :       0.00          0          0          -          0        0.0          0        0.0          -          -          -
  applied globally :       0.50          -          -          0      23359       77.7          -          -          2          -          -
  applied locally  :          -          -          -          0          0        0.0          -          -          0          -          -
Separators         :   ExecTime  SetupTime      Calls  RootCalls    Cutoffs    DomReds  FoundCuts ViaPoolAdd  DirectAdd    Applied ViaPoolApp  DirectApp      Conss
  cut pool         :       3.05          -      15126        204          -          -      32744     503044          -          -          -          -          -    (maximal pool size:       2084)
  aggregation      :      81.09       0.00       4462        169          0          0         82        110          0         34         34          0          0
  > cmir           :          -          -          -          -          -          -          -        110          0         34         34          0          -
  > flowcover      :          -          -          -          -          -          -          -          0          0          0          0          0          -
  > knapsackcover  :          -          -          -          -          -          -          -          0          0          0          0          0          -
  cgmip            :       0.00       0.00          0          0          0          0          0          0          0          0          0          0          0
  clique           :       0.00       0.00        169        169          0          0          0          0          0          0          0          0          0
  closecuts        :       0.00       0.00          0          0          0          0          0          0          0          0          0          0          0
  convexproj       :       0.00       0.00          0          0          0          0          0          0          0          0          0          0          0
  disjunctive      :       0.00       0.00          0          0          0          0          0          0          0          0          0          0          0
  eccuts           :       0.00       0.00          0          0          0          0          0          0          0          0          0          0          0
  gauge            :       0.00       0.00          0          0          0          0          0          0          0          0          0          0          0
  gomory           :       0.00       0.00          0          0          0          0          0          0          0          0          0          0          0
  > gomorymi       :          -          -          -          -          -          -          -          0          0          0          0          0          -
  > strongcg       :          -          -          -          -          -          -          -          0          0          0          0          0          -
  impliedbounds    :       0.31       0.00       4462        169          0          0          1          1          0          1          1          0          0
  interlattice     :       0.69       0.00        128        128          0          0        128          0        128        127          0        127          0
  interminor       :       0.00       0.00          0          0          0          0          0          0          0          0          0          0          0
  intersub         :       0.05       0.00          3          3          0          0          2          0          2          2          0          2          0
  intobj           :       0.00       0.00          0          0          0          0          0          0          0          0          0          0          0
  mcf              :       0.00       0.00          1          1          0          0          0          0          0          0          0          0          0
  minor            :       0.02       0.00          0          0          0          0          0          0          0          0          0          0          0
  mixing           :       0.01       0.00       4462        169          0          0          0          0          0          0          0          0          0
  oddcycle         :       0.00       0.00          0          0          0          0          0          0          0          0          0          0          0
  rapidlearning    :       0.01       0.00          0          0          0          0          0          0          0          0          0          0          0
  rlt              :       0.00       0.00         10         10          0          0          0          0          0          0          0          0          0
  zerohalf         :      37.16       0.00       3987         20          0          0      32661     502933          0      87384      87384          0          0
Cutselectors       :   ExecTime  SetupTime      Calls  RootCalls   Selected     Forced   Filtered  RootSelec   RootForc   RootFilt 
  hybrid           :       0.33       0.00       8336        169      88804          0     415651        322          0         16
Pricers            :   ExecTime  SetupTime      Calls       Vars
  problem variables:       0.00          -          0          0
Branching Rules    :   ExecTime  SetupTime   BranchLP  BranchExt   BranchPS    Cutoffs    DomReds       Cuts      Conss   Children
  allfullstrong    :       0.00       0.00          0          0          0          0          0          0          0          0
  cloud            :       0.00       0.00          0          0          0          0          0          0          0          0
  distribution     :       0.00       0.00          0          0          0          0          0          0          0          0
  fullstrong       :       0.00       0.00          0          0          0          0          0          0          0          0
  inference        :       0.00       0.00          0          0          0          0          0          0          0          0
  leastinf         :       0.00       0.00          0          0          0          0          0          0          0          0
  lookahead        :       0.00       0.00          0          0          0          0          0          0          0          0
  mostinf          :       0.00       0.00          0          0          0          0          0          0          0          0
  multaggr         :       0.00       0.00          0          0          0          0          0          0          0          0
  nodereopt        :       0.00       0.00          0          0          0          0          0          0          0          0
  pscost           :       0.00       0.00          0          0          0          0          0          0          0          0
  random           :       0.00       0.00          0          0          0          0          0          0          0          0
  relpscost        :      52.15       0.00      58587          0          0          0       3457          0       1778     114656
  vanillafullstrong:       0.00       0.00          0          0          0          0          0          0          0          0
Primal Heuristics  :   ExecTime  SetupTime      Calls      Found       Best
  LP solutions     :       0.01          -          -         16         16
  relax solutions  :       0.00          -          -          0          0
  pseudo solutions :       0.00          -          -          0          0
  strong branching :       0.05          -          -          1          1
  actconsdiving    :       0.00       0.00          0          0          0
  adaptivediving   :      12.64       0.00        122          1          1
  alns             :       5.73       0.00         27          9          9
  bound            :       0.00       0.00          0          0          0
  clique           :       0.01       0.00          1          0          0
  coefdiving       :       0.00       0.00          0          0          0
  completesol      :       0.00       0.00          0          0          0
  conflictdiving   :      35.66       0.00        385          0          0
  crossover        :       1.99       0.00         16          1          1
  dins             :       0.00       0.00          0          0          0
  distributiondivin:      58.99       0.00        385          0          0
  dps              :       0.00       0.00          0          0          0
  dualval          :       0.00       0.00          0          0          0
  farkasdiving     :       0.00       0.00          0          0          0
  feaspump         :       0.01       0.00          0          0          0
  fixandinfer      :       0.00       0.00          0          0          0
  fracdiving       :      43.11       0.00        386          0          0
  gins             :       0.08       0.00          0          0          0
  guideddiving     :      37.98       0.00        385          0          0
  indicator        :       0.12       0.00          0          0          0
  indicatordiving  :       0.00       0.00          0          0          0
  intdiving        :       0.00       0.00          0          0          0
  intshifting      :       0.23       0.00         30          0          0
  linesearchdiving :      35.14       0.00        385          0          0
  localbranching   :       0.00       0.00          0          0          0
  locks            :       0.01       0.00          1          0          0
  lpface           :       0.09       0.00          0          0          0
  mpec             :       2.04       0.00          1          0          0
  multistart       :       0.00       0.00          0          0          0
  mutation         :       0.00       0.00          0          0          0
  nlpdiving        :       8.95       0.00          9          0          0
  objpscostdiving  :      31.47       0.00         42          1          0
  octane           :       0.00       0.00          0          0          0
  ofins            :       0.05       0.00          0          0          0
  oneopt           :       0.14       0.00         37          0          0
  padm             :       0.00       0.00          0          0          0
  proximity        :       0.00       0.00          0          0          0
  pscostdiving     :      45.33       0.00        386          0          0
  randrounding     :       0.79       0.00       1753          0          0
  rens             :       0.00       0.00          0          0          0
  reoptsols        :       0.00       0.00          0          0          0
  repair           :       0.00       0.00          0          0          0
  rins             :       0.00       0.00          0          0          0
  rootsoldiving    :      36.61       0.00         47          0          0
  rounding         :       1.07       0.00       3545          0          0
  shiftandpropagate:       0.00       0.00          0          0          0
  shifting         :      52.22       0.00      11634         10         10
  simplerounding   :       0.09       0.00          0          0          0
  subnlp           :     104.19       0.00          0          0          0
  trivial          :       0.00       0.00          2          2          2
  trivialnegation  :       0.00       0.00          0          0          0
  trustregion      :       0.00       0.00          0          0          0
  trysol           :       0.06       0.00          0          0          0
  twoopt           :       0.00       0.00          0          0          0
  undercover       :       0.81       0.00          1          1          1
  vbounds          :       0.00       0.00          0          0          0
  veclendiving     :      34.72       0.00        385          0          0
  zeroobj          :       0.00       0.00          0          0          0
  zirounding       :       0.50       0.00       1000          0          0
  other solutions  :          -          -          -          0          -
Diving (single)    :      Calls      Nodes   LP Iters Backtracks  Conflicts   MinDepth   MaxDepth   AvgDepth  RoundSols  NLeafSols  MinSolDpt  MaxSolDpt  AvgSolDpt
  actconsdiving    :          0          -          -          -          -          -          -          -          -          -          -          -          -
  coefdiving       :          0          -          -          -          -          -          -          -          -          -          -          -          -
  conflictdiving   :        385      12828     330220        420      15323         35         67       49.2          0          -          -          -          -
  distributiondivin:        385       9682     446943        440       6162         32         53       40.9          0          -          -          -          -
  farkasdiving     :          0          -          -          -          -          -          -          -          -          -          -          -          -
  fracdiving       :        386      48537     381666        346       3690         41        559      141.7          0          -          -          -          -
  guideddiving     :        385      41483     346842        170       2975         42        429      124.4          0          -          -          -          -
  indicatordiving  :          0          -          -          -          -          -          -          -          -          -          -          -          -
  linesearchdiving :        385      12755     337237        449      14191         33         78       49.1          0          -          -          -          -
  pscostdiving     :        386      12095     435256        403      10514         36         60       47.1          0          -          -          -          -
  veclendiving     :        385      12427     320980        420      17083         35         65       48.2          0          -          -          -          -
Diving (adaptive)  :      Calls      Nodes   LP Iters Backtracks  Conflicts   MinDepth   MaxDepth   AvgDepth  RoundSols  NLeafSols  MinSolDpt  MaxSolDpt  AvgSolDpt
  actconsdiving    :         13        355      12606         10        107         36         45       42.5          0          -          -          -          -
  coefdiving       :         37       1144      38022         41       1603         36         57       45.5          0          -          -          -          -
  conflictdiving   :          0          -          -          -          -          -          -          -          -          -          -          -          -
  distributiondivin:          0          -          -          -          -          -          -          -          -          -          -          -          -
  farkasdiving     :          0          -          -          -          -          -          -          -          -          -          -          -          -
  fracdiving       :          7        809       6898          3         54         50        243      130.7          0          -          -          -          -
  guideddiving     :         15       1417      14273          4         59         49        165      108.7          0          1        103        103      103.0
  indicatordiving  :          0          -          -          -          -          -          -          -          -          -          -          -          -
  linesearchdiving :         11        298      10339         14        437         36         56       43.8          0          -          -          -          -
  pscostdiving     :         12        392      13082         12        351         44         53       48.2          0          -          -          -          -
  veclendiving     :         27        890      25252         32       1147         38         58       48.5          0          -          -          -          -
Neighborhoods      :      Calls  SetupTime  SolveTime SolveNodes       Sols       Best       Exp3  EpsGreedy        UCB TgtFixRate  Opt  Inf Node Stal  Sol  Usr Othr Actv
  rens             :          2       0.04       0.01          0          0          0    0.00000   -1.00000    0.30163      0.700    0    1    0    0    0    0    1    1
  rins             :          2       0.14       0.05         25          0          0    0.00000   -1.00000    0.52322      0.550    0    2    0    0    0    0    0    1
  mutation         :          5       0.50       1.09        564          3          3    0.00000   -1.00000    0.52385      0.571    1    2    0    2    0    0    0    1
  localbranching   :          6       0.43       0.67        404          4          4    0.00000   -1.00000    0.49585      0.636    2    2    0    2    0    0    0    1
  crossover        :          2       0.18       0.04         13          0          0    0.00000   -1.00000    0.53686      0.550    0    2    0    0    0    0    0    1
  proximity        :          2       0.16       0.26         73          0          0    0.00000   -1.00000    0.47399      0.850    0    1    0    1    0    0    0    1
  zeroobjective    :          6       0.42       1.28        296          2          2    0.00000   -1.00000    0.48636      0.633    2    1    0    3    0    0    0    1
  dins             :          2       0.13       0.07         82          0          0    0.00000   -1.00000    0.45244      0.850    0    1    0    1    0    0    0    1
  trustregion      :          0       0.00       0.00          0          0          0    0.00000   -1.00000    1.00000      0.900    0    0    0    0    0    0    0    0
Expressions        :   #IntEval  IntEvalTi   #RevProp  RevPropTi    DomReds    Cutoffs  #Estimate  EstimTime  Branching  #Simplify SimplifyTi Simplified
  pow              :          0       0.00          0       0.00          0          0          0       0.00          0          0       0.00          0
  prod             :       6320       0.00          0       0.00          0          0          0       0.00          0       4690       0.00          0
  sum              :          8       0.00          2       0.00          0          0          0       0.00          0          3       0.03          2
  var              :       5485       0.00          0       0.00          0          0          0       0.00          0      11154       0.01          0
  varidx           :          0       0.00          0       0.00          0          0          0       0.00          0          0       0.00          0
LP                 :       Time      Calls Iterations  Iter/call   Iter/sec  Time-0-It Calls-0-It    ItLimit
  primal LP        :     116.82       8170          0       0.00       0.00     116.75       8170
  dual LP          :    2577.36     120983   12068007     110.47    4682.31       5.55      11742
  lex dual LP      :       0.00          0          0       0.00          -
  barrier LP       :       0.00          0          0       0.00          -       0.00          0
  resolve instable :       0.00          0          0       0.00          -
  diving/probing LP:     317.83      11048    3048245     275.91    9590.80
  strong branching :      27.76       2527     253563     100.34    9134.11          -          -         33
    (at root node) :          -         19       5678     298.84          -
  conflict analysis:       5.43       3298      32645       9.90    6011.97
NLP relaxation     :
  solve time       :       8.94 (9 calls)
  convexity        :  nonconvex (4 linear rows, 0 convex ineq., 0 nonconvex ineq., 1530 nonlinear eq. or two-sided ineq.)
NLP Solvers        :  #Problems  ProblemTi    #Solves  SolveTime      #Iter  Time/Iter      #Okay #TimeLimit #IterLimit #LObjLimit #Interrupt  #NumError #EvalError  #OutOfMem #LicenseEr #OtherTerm   #GlobOpt    #LocOpt  #Feasible #LocInfeas #GlobInfea #Unbounded   #Unknown
  ipopt            :          2       4.28         11      11.01        346       0.03         11          0          0          0          0          0          0          0          0          0          0          0          0          2          0          0          9
B&B Tree           :
  number of runs   :          1
  nodes            :      99653 (57328 internal, 42325 leaves)
  feasible leaves  :         16
  infeas. leaves   :          7
  objective leaves :      42301
  nodes (total)    :      99653 (57328 internal, 42325 leaves)
  nodes left       :      14963
  max depth        :         49
  max depth (total):         49
  backtracks       :      22065 (22.1%)
  early backtracks :          0 (0.0%)
  nodes exc. ref.  :          0 (0.0%)
  delayed cutoffs  :          0
  repropagations   :       2398 (199 domain reductions, 0 cutoffs)
  avg switch length:       4.34
  switching time   :     136.93
Estim. Tree Size   :     199388
Estimation Tree    : 114657 nodes (99694 visited, 57328 internal, 42366 leaves, 14963 open), weight: 0.0000 completed 0.1528
Estimations        :      estim      value      trend resolution     smooth
  wbe              : 20968938443          -          -          -          -
  tree-profile     :         -1          -          -          -          -
  gap              :     995088    0.79052    0.00003         64     996411
  tree-weight      :     199388    0.00000    0.00000         64     198989
  leaf-frequency   :    1632594    0.42496    0.00001         64    1924116
  ssg              :    3313803    0.75868   -0.00003         64    3298998
  open-nodes       :     199388 14963.00000   10.14606         64     198989
Root Node          :
  First LP value   : -1.00000000000000e+00
  First LP Iters   :       1020 (12750.00 Iter/sec)
  First LP Time    :       0.08
  Final Dual Bound : -9.11536011574084e-01
  Final Root Iters :       3869
  Root LP Estimate : -4.82179238319851e-01
Solution           :
  Solutions found  :         42 (41 improvements)
  First Solution   : +1.00000000000000e+05   (in run 1, after 0 nodes, 0.01 seconds, depth 0, found by <trivial>)
  Gap First Sol.   :   infinite
  Gap Last Sol.    :      29.03 %
  Primal Bound     : -5.80379746835442e-01   (in run 1, after 62716 nodes, 2150.22 seconds, depth 40, found by <alns>)
  Dual Bound       : -7.34177215189875e-01
  Gap              :      26.50 %
Integrals          :      Total       Avg%
  primal-dual      :   88197.09      24.50
  primal-ref       :          -          - (not evaluated)
  dual-ref         :          -          - (not evaluated)
